c random assignment satisfied 192/430 clauses
o 238
c flipped 0/100 variables (k=0)
c solution improved by 31 clauses
o 207
c flipped 0/100 variables (k=0)
c solution improved by 16 clauses
o 191
c flipped 0/100 variables (k=0)
c solution improved by 3 clauses
o 188
c flipped 0/100 variables (k=0)
c solution improved by 8 clauses
o 180
c flipped 0/100 variables (k=0)
c solution improved by 54 clauses
o 126
c flipped 0/100 variables (k=0)
c solution improved by 2 clauses
o 124
c flipped 0/100 variables (k=0)
c solution improved by 6 clauses
o 118
c flipped 0/100 variables (k=0)
c solution improved by 23 clauses
o 95
c flipped 0/100 variables (k=0)
c solution improved by 4 clauses
o 91
c flipped 0/100 variables (k=0)
c solution improved by 1 clause
o 90
c flipped 0/100 variables (k=0)
c solution improved by 15 clauses
o 75
c flipped 0/100 variables (k=0)
c solution improved by 1 clause
o 74
c flipped 0/100 variables (k=0)
c solution improved by 1 clause
o 73
c flipped 0/100 variables (k=0)
c solution improved by 1 clause
o 72
c flipped 0/100 variables (k=0)
c solution improved by 1 clause
o 71
c flipped 0/100 variables (k=0)
c solution improved by 4 clauses
o 67
c flipped 0/100 variables (k=0)
c solution improved by 3 clauses
o 64
c flipped 0/100 variables (k=0)
c solution improved by 1 clause
o 63
c flipped 0/100 variables (k=0)
c solution improved by 1 clause
o 62
c flipped 0/100 variables (k=0)
c solution improved by 2 clauses
o 60
c flipped 0/100 variables (k=0)
c solution improved by 1 clause
o 59
c flipped 0/100 variables (k=0)
c solution improved by 2 clauses
o 57
c flipped 0/100 variables (k=0)
c solution improved by 1 clause
o 56
c flipped 0/100 variables (k=0)
c solution improved by 1 clause
o 55
v 0000111111010001011000001000000010010101110001100101011111011101100100000100110100011111010001110010
c stuck at 375/430 clauses with k=0
s UNKNOWN
